Geometry = GenFormat {
96 S
O H
1 1 3.5174000e+00 4.1618700e+00 7.4842000e+00
2 2 3.2505000e+00 2.5384100e+00 4.5505200e+00
3 2 1.3003400e+00 1.9698300e+00 2.0027700e+00
4 1 2.6648100e+00 4.5137500e+00 1.3699600e+00
5 2 1.9220100e+00 2.0662600e+00 5.6933000e-01
6 2 5.8083500e+00 4.5328900e+00 5.0704500e+00
7 1 3.9098900e+00 7.5094000e+00 2.5211700e+00
8 2 1.2551500e+00 6.6709500e+00 4.2579700e+00
9 2 8.0616900e+00 7.3697200e+00 3.7375000e-01
10 1 3.7895800e+00 1.9045000e+00 5.1198700e+00
11 2 8.4067900e+00 6.4270200e+00 8.0322100e+00
12 2 3.8159300e+00 2.9752000e-01 2.7317000e-01
13 1 4.0039000e+00 7.1353300e+00 5.3999800e+00
14 2 1.5294100e+00 7.4749700e+00 8.5374200e+00
15 2 6.0194500e+00 6.5982000e-01 3.9599500e+00
16 1 4.6384100e+00 2.6192700e+00 2.1484100e+00
17 2 4.1590000e-02 1.7337300e+00 3.4406000e+00
18 2 7.9672500e+00 2.7068500e+00 6.1495000e-01
19 1 4.1180000e-02 6.5956300e+00 4.4412000e-01
20 2 3.8512000e+00 5.6765600e+00 5.0138700e+00
21 2 4.2655000e-01 4.3618700e+00 7.1437300e+00
22 1 2.0816100e+00 2.0063600e+00 7.6589500e+00
23 2 8.2698000e+00 4.7401700e+00 5.7723900e+00
24 2 1.7498300e+00 1.1204400e+00 7.4578400e+00
25 1 6.1371000e+00 2.5258500e+00 7.4722300e+00
26 2 5.4882100e+00 2.5927100e+00 8.4089400e+00
27 2 4.1264000e+00 5.0550200e+00 7.5465700e+00
28 1 4.5292000e+00 2.0838000e-01 8.0362000e+00
29 2 3.6661700e+00 6.8358300e+00 3.1760400e+00
30 2 6.0976900e+00 8.1565600e+00 7.6543100e+00
31 1 2.1902300e+00 1.9549100e+00 1.4986900e+00
32 2 5.3262800e+00 3.2637600e+00 7.4156200e+00
33 2 5.4375500e+00 1.7741300e+00 4.8466900e+00
34 1 8.4630800e+00 1.0871800e+00 6.0080000e-01
35 2 2.3134800e+00 4.2853400e+00 7.2273100e+00
36 2 1.4339700e+00 3.6087800e+00 8.2185800e+00
37 1 1.0843900e+00 4.0960900e+00 5.2174200e+00
38 2 7.1216400e+00 4.0089400e+00 6.0335000e-01
39 2 5.7521000e-01 8.3839900e+00 2.7601600e+00
40 1 7.5358700e+00 4.7720000e+00 6.4860200e+00
41 2 3.9845700e+00 2.2666800e+00 5.9349100e+00
42 2 6.0655000e-01 3.1971400e+00 4.6129800e+00
43 1 6.8921300e+00 7.8704300e+00 7.3094200e+00
44 2 5.7979900e+00 5.7778900e+00 4.0143400e+00
45 2 4.8417200e+00 3.6081700e+00 2.3183300e+00
46 1 3.7042200e+00 4.7511800e+00 5.4095000e+00
47 2 8.2910000e-02 2.8208700e+00 7.0874200e+00
48 2 2.7006600e+00 4.4739600e+00 4.9767400e+00
49 1 1.7491100e+00 7.0078700e+00 6.6679300e+00
50 2 2.5404800e+00 6.5937200e+00 6.0733000e+00
51 2 4.3290100e+00 5.3409000e-01 7.2005200e+00
52 1 8.4627800e+00 2.5853200e+00 3.7605400e+00
53 2 6.6807000e-01 5.4917900e+00 1.5774000e+00
54 2 1.3012000e+00 8.1116900e+00 4.8076300e+00
55 1 1.7879200e+00 2.3683000e-01 4.4442600e+00
56 2 2.5095000e+00 7.5732000e-01 5.0198600e+00
57 2 4.9306500e+00 8.4696700e+00 1.7920900e+00
58 1 6.7675000e+00 7.2057800e+00 4.7515800e+00
59 2 2.9359600e+00 1.8834800e+00 8.2084100e+00
60 2 3.3424200e+00 7.0342200e+00 1.5982900e+00
61 1 7.5007900e+00 3.3799700e+00 1.2927100e+00
62 2 5.9690200e+00 5.4602600e+00 7.7472400e+00
63 2 5.5628300e+00 2.2110900e+00 2.6432500e+00
64 1 6.1573000e+00 6.0101800e+00 2.2017800e+00
65 2 7.5034200e+00 7.6378100e+00 4.1581200e+00
66 2 6.0366300e+00 5.7816000e+00 7.9657000e-01
67 1 2.4266400e+00 7.7000100e+00 3.3687000e-01
68 2 2.3306900e+00 4.2760200e+00 2.2716500e+00
69 2 2.8412500e+00 6.8295600e+00 9.3730000e-02
70 1 6.3071100e+00 5.1309400e+00 4.6418700e+00
71 2 7.1448900e+00 4.9724500e+00 5.4949100e+00
72 2 5.9998300e+00 7.8287800e+00 4.8918000e+00
73 1 5.9068300e+00 8.4204500e+00 1.6480700e+00
74 2 2.4857400e+00 7.0517700e+00 3.6489200e+00
75 2 6.2403600e+00 7.1359500e+00 2.0535100e+00
76 1 5.3839100e+00 5.5498300e+00 8.5372900e+00
77 2 8.0925600e+00 1.4112600e+00 8.0781400e+00
78 2 3.7093000e+00 4.1836500e+00 8.4934500e+00
79 1 1.1670900e+00 4.5424300e+00 7.9484200e+00
80 2 1.9034900e+00 7.9269800e+00 6.2596100e+00
81 2 6.2565200e+00 2.5579000e-01 8.5713000e-01
82 1 8.4060200e+00 1.8714500e+00 6.6511500e+00
83 2 7.4603400e+00 2.1520100e+00 6.5049600e+00
84 2 6.7365300e+00 7.1245000e+00 6.7170400e+00
85 1 1.7324000e+00 6.3593300e+00 3.4281500e+00
86 2 8.2603900e+00 4.3470600e+00 2.0873100e+00
87 2 9.3810000e-01 4.8766500e+00 4.5816700e+00
88 1 6.8960000e-02 5.1828200e+00 2.4038800e+00
89 2 2.9991500e+00 3.4496000e+00 1.3613500e+00
90 2 7.5347900e+00 2.9198400e+00 4.0402900e+00
91 1 6.1102000e+00 1.5706100e+00 4.1976300e+00
92 2 7.6307300e+00 3.0601000e-01 2.4273400e+00
93 2 7.2215000e+00 5.7436000e+00 2.3063000e+00
94 1 8.2492500e+00 5.0600000e-02 3.0899900e+00
95 2 7.9317000e-01 4.2229000e-01 5.8317000e-01
96 2 4.8063700e+00 7.0919100e+00 6.0251300e+00
0.0000 0.0000 0.0000
8.60913 0.0000 0.0000
0.0000 8.60913 0.0000
0.0000 0.0000 8.60913
}
Driver = {}
Hamiltonian = DFTB {
  SCC = Yes
  SCCTolerance = 1e-6
  MaxSCCIterations = 40
  MaxAngularMomentum = {
    O = "p"
    H = "s"
  }
  PolynomialRepulsive = {
    O-O = Yes
    H-H = Yes
    O-H = Yes
    H-O = Yes
  }
  Charge = 0.0
  SpinPolarisation = {}
  Eigensolver = Standard {}
  Filling = Fermi {
    Temperature [Kelvin] = 2000.0
    IndependentKFilling = No
  }
  SlaterKosterFiles = Type2FileNames {
    Prefix = "/usr/gapps/polymers/dftb+_1.1_llnl/dftb+_1.1rc1_autotest/slako/mio-1-1/"
    Separator = "-"
    Suffix = ".skf"
    LowerCaseTypeName = No
  }
  KPointsAndWeights = {
0.0000000000000 0.0000000000000 0.0000000000000 1.00000000000000
  }
  ReadInitialCharges = No
  OldRepulsiveSum = No
  OrbitalResolvedSCC = No
  OldSKInterpolation = No
  LAMMPS = No
  NoErep = No
  TimeReverseCharges = No
  InitialCharges = {}
  Mixer = Broyden {
    MixingParameter = 0.200000000000000
    CachedIterations = -1
    InverseJacobiWeight = 1.000000000000000E-002
    MinimalWeight = 1.00000000000000
    MaximalWeight = 100000.000000000
    WeightFactor = 1.000000000000000E-002
  }
  ElectricField = {}
  DampXH = No
  EwaldParameter = 0.000000000000000E+000
  Dispersion = {}
  ThirdOrder = No
  ThirdOrderFull = No
}
Options = {
  CalculateForces = Yes
  WriteDetailedOut = Yes
  RandomSeed = 12345
  WriteEigenvectors = No
  WriteAutotestTag = No
  WriteDetailedXML = No
  WriteResultsTag = No
  WriteBandOut = Yes
  AtomResolvedEnergies = No
  RestartFrequency = 20
  WriteHS = No
  WriteRealHS = No
  MinimiseMemoryUsage = No
  ShowFoldedCoords = No
}
ParserOptions = {
  ParserVersion = 3
  WriteHSDInput = Yes
  WriteXMLInput = No
  StopAfterParsing = No
  IgnoreUnprocessedNodes = No
}
Analysis = {
  ProjectStates = {}
}
