   NWRITE =      1;   LPETIM=F    write-flag & timer
   ISTART =      0    job   : 0-new  1-cont  2-samecut
   ICHARG =      2    job   : 0-new  1-cont  2-samecut
   NCORE = 18
   LVDW = .TRUE.

   GGA = PE
   EDIFF  =   1E-06  stopping-criterion for ELM
   EDIFFG  = -1E-02   stopping-criterion for IOM
   ISPIN = 1 
   ENCUT = 700

   NSW    =  0 number of steps for IOM
   IBRION =      0    ionic relax: 0-MD 1-quasi-New 2-CG
   ADDGRID=  .FALSE.
   ISIF   =      2    stress and relaxation
   LCORR  =      T    Harris-correction to forces
   ISMEAR =     -1
   SIGMA  =   0.81 broadening in eV -4-tet -1-fermi 0-gaus

   NELMIN = 4
   NELM = 200
   IALGO  =      48   algorithm
   LREAL  =      A   real space projections

   TEBEG  = 9350.0 !Starting temperature
   TEEND  = 9350.0 
   SMASS = 0.13
   POTIM = 0.5


